width = 20;

n_circuits = 14;

circuit_x = array1d(1..14, [3, 3, 3, 3, 3, 3, 3, 3, 3, 3, 4, 4, 4, 4]);

circuit_y = array1d(1..14, [3, 4, 5, 6, 7, 8, 9, 10, 11, 17, 3, 9, 11, 17]);

opt_height = 20;

max_y = 17;

